% Auto-generated by scripts/generate_dzn.py
% problem_type   = regex
% instance       = regex_84
% source_json    = instances_json/2_high_blowup/regex_84.json
% blowup         = 13.090909090909092
% representation = DFA

mode = 0;

var_count = 29;
Q = 144;
S = 2;
q0 = 1;
F = {90, 91, 92, 93, 94, 95, 96, 97, 98, 99, 100, 101, 102, 103, 104, 105, 106, 107, 108, 109, 110, 111, 112, 113, 114, 115, 116, 117, 118, 119, 120, 121, 122, 123, 124, 125, 126, 127, 128, 129, 130, 131, 132, 133, 134, 135, 136, 137, 138, 139, 140, 141, 142, 143, 144};
d_dfa = array2d(1..144, 1..2, [
  2, 1,
  2, 3,
  5, 4,
  7, 6,
  7, 8,
  10, 9,
  10, 11,
  13, 12,
  15, 14,
  15, 16,
  18, 17,
  20, 19,
  20, 21,
  23, 22,
  23, 24,
  26, 25,
  28, 27,
  28, 29,
  31, 30,
  31, 32,
  34, 33,
  36, 35,
  36, 37,
  39, 38,
  41, 40,
  41, 42,
  44, 43,
  44, 45,
  47, 46,
  49, 48,
  49, 50,
  52, 51,
  54, 53,
  54, 55,
  57, 56,
  57, 58,
  60, 59,
  62, 61,
  62, 63,
  65, 64,
  65, 66,
  68, 67,
  70, 69,
  70, 71,
  73, 72,
  75, 74,
  75, 76,
  78, 77,
  78, 79,
  81, 80,
  83, 82,
  83, 84,
  86, 85,
  86, 87,
  89, 88,
  91, 90,
  91, 92,
  94, 93,
  96, 95,
  96, 97,
  99, 98,
  99, 100,
  102, 101,
  104, 103,
  104, 105,
  107, 106,
  109, 108,
  109, 110,
  112, 111,
  112, 113,
  115, 114,
  117, 116,
  117, 118,
  120, 119,
  120, 121,
  123, 122,
  125, 124,
  125, 126,
  128, 127,
  130, 129,
  130, 131,
  133, 132,
  133, 134,
  136, 135,
  138, 137,
  138, 139,
  141, 140,
  143, 142,
  143, 144,
  2, 1,
  2, 3,
  5, 4,
  7, 6,
  7, 8,
  10, 9,
  10, 11,
  13, 12,
  15, 14,
  15, 16,
  18, 17,
  20, 19,
  20, 21,
  23, 22,
  23, 24,
  26, 25,
  28, 27,
  28, 29,
  31, 30,
  31, 32,
  34, 33,
  36, 35,
  36, 37,
  39, 38,
  41, 40,
  41, 42,
  44, 43,
  44, 45,
  47, 46,
  49, 48,
  49, 50,
  52, 51,
  54, 53,
  54, 55,
  57, 56,
  57, 58,
  60, 59,
  62, 61,
  62, 63,
  65, 64,
  65, 66,
  68, 67,
  70, 69,
  70, 71,
  73, 72,
  75, 74,
  75, 76,
  78, 77,
  78, 79,
  81, 80,
  83, 82,
  83, 84,
  86, 85,
  86, 87,
  89, 88
]);
d_nfa = array2d(1..144, 1..2, [
  {}, {},
  {}, {},
  {}, {},
  {}, {},
  {}, {},
  {}, {},
  {}, {},
  {}, {},
  {}, {},
  {}, {},
  {}, {},
  {}, {},
  {}, {},
  {}, {},
  {}, {},
  {}, {},
  {}, {},
  {}, {},
  {}, {},
  {}, {},
  {}, {},
  {}, {},
  {}, {},
  {}, {},
  {}, {},
  {}, {},
  {}, {},
  {}, {},
  {}, {},
  {}, {},
  {}, {},
  {}, {},
  {}, {},
  {}, {},
  {}, {},
  {}, {},
  {}, {},
  {}, {},
  {}, {},
  {}, {},
  {}, {},
  {}, {},
  {}, {},
  {}, {},
  {}, {},
  {}, {},
  {}, {},
  {}, {},
  {}, {},
  {}, {},
  {}, {},
  {}, {},
  {}, {},
  {}, {},
  {}, {},
  {}, {},
  {}, {},
  {}, {},
  {}, {},
  {}, {},
  {}, {},
  {}, {},
  {}, {},
  {}, {},
  {}, {},
  {}, {},
  {}, {},
  {}, {},
  {}, {},
  {}, {},
  {}, {},
  {}, {},
  {}, {},
  {}, {},
  {}, {},
  {}, {},
  {}, {},
  {}, {},
  {}, {},
  {}, {},
  {}, {},
  {}, {},
  {}, {},
  {}, {},
  {}, {},
  {}, {},
  {}, {},
  {}, {},
  {}, {},
  {}, {},
  {}, {},
  {}, {},
  {}, {},
  {}, {},
  {}, {},
  {}, {},
  {}, {},
  {}, {},
  {}, {},
  {}, {},
  {}, {},
  {}, {},
  {}, {},
  {}, {},
  {}, {},
  {}, {},
  {}, {},
  {}, {},
  {}, {},
  {}, {},
  {}, {},
  {}, {},
  {}, {},
  {}, {},
  {}, {},
  {}, {},
  {}, {},
  {}, {},
  {}, {},
  {}, {},
  {}, {},
  {}, {},
  {}, {},
  {}, {},
  {}, {},
  {}, {},
  {}, {},
  {}, {},
  {}, {},
  {}, {},
  {}, {},
  {}, {},
  {}, {},
  {}, {},
  {}, {},
  {}, {},
  {}, {},
  {}, {},
  {}, {},
  {}, {},
  {}, {},
  {}, {},
  {}, {},
  {}, {}
]);
